TRI2b (triclinic) X-G-Y L-G-Z N-G-M R-G
50   ! 50 grids 
Line-mode
reciprocal
   0.000  -0.500   0.000   ! X
   0.000   0.000   0.000   ! \Gamma
 
   0.000   0.000   0.000   ! \Gamma
   0.500   0.000   0.000   ! Y

   0.500   0.000   0.000   ! Y
   0.500  -0.500   0.000   ! L
 
   0.500  -0.500   0.000   ! L
   0.000   0.000   0.000   ! \Gamma
 
   0.000   0.000   0.000   ! \Gamma
  -0.500   0.000   0.500   ! Z

  -0.500   0.000   0.500   ! Z
  -0.500  -0.500   0.500   ! N
 
  -0.500  -0.500   0.500   ! N
   0.000   0.000   0.000   ! \Gamma
 
   0.000   0.000   0.000   ! \Gamma
   0.000   0.000   0.500   ! M

   0.000   0.000   0.500   ! M
   0.000  -0.500   0.500   ! R
 
   0.000  -0.500   0.500   ! R
   0.000   0.000   0.000   ! \Gamma
