MCL (monoclinic) G-Y-H-C-E-M1-A-X-G-Z-D-M Z-A D-Y X-H1
50   ! 50 grids 
Line-mode
reciprocal
   0.000   0.000   0.000   ! \Gamma
   0.000   0.000   0.500   ! Y
 
   0.000   0.000   0.500   ! Y
   0.000  0.499484  0.500537  ! H
 
   0.000  0.499484  0.500537  ! H
   0.000   0.500   0.500   ! C
 
   0.000   0.500   0.500   ! C
   0.500   0.500   0.500   ! E
 
   0.500   0.500   0.500   ! E
   0.500  0.500516  0.499463  ! M_1
 
   0.500  0.500516  0.499463  ! M_1
   0.500   0.500   0.000   ! A
 
   0.500   0.500   0.000   ! A
   0.000   0.500   0.000   ! X
 
   0.000   0.500   0.000   ! X
   0.000   0.000   0.000   ! \Gamma
 
   0.000   0.000   0.000   ! \Gamma
   0.500   0.000   0.000   ! Z
 
   0.500   0.000   0.000   ! Z
   0.500   0.000   0.500   ! D
 
   0.500   0.000   0.500   ! D
   0.500  0.499484  0.500537  ! M

   0.500  0.499484  0.500537  ! M
   0.500   0.000   0.000   ! Z
 
   0.500   0.000   0.000   ! Z
   0.500   0.500   0.000   ! A

   0.500   0.500   0.000   ! A
   0.500   0.000   0.500   ! D
 
   0.500   0.000   0.500   ! D
   0.000   0.000   0.500   ! Y

   0.000   0.000   0.500   ! Y
   0.000   0.500   0.000   ! X
 
   0.000   0.500   0.000   ! X
   0.000  0.500516  0.499463  ! H_1
