 #5 -0.642061814300000E+02  0.220481778784960E+03
1.0
     7.9579511515969497     0.0000000000000000     0.0000000000000000
    -3.9800904960481898     7.2393915495611170     0.0000000000000000
    -0.0002554754491763     0.0042307774600826     3.8270961074069847
  Si
  11
Direct
  0.8225208348251130  0.5687027709963390  0.4851983799837850
  0.4055969796044820  0.6614045724546140  0.2356188122730030
  0.9001570819967030  0.9552229642791090  0.7532741170385080
  0.0978463630176805  0.8200601376311381  0.7205102604868190
  0.9836990851198880  0.2685250095983350  0.7519033947306180
  0.2838492755921320  0.8687882746729940  0.2192958244223320
  0.3128429763016810  0.4759389147592470  0.7357765557017900
  0.8464155990701840  0.3172246248275670  0.2505819916386900
  0.5181280783688750  0.3487460733895280  0.7165543378832950
  0.5135062149594770  0.1820931531612690  0.2171323096933830
  0.7380980359848340  0.7885482440322420  0.2537587610408780

