Sr4 F8 
1.0 
5.859142 0.000000 0.000000 
0.000000 5.859142 0.000000 
0.000000 0.000000 5.859142 
Sr F 
4 8 
direct 
0.000000 0.000000 0.000000 Sr 
0.000000 0.500000 0.500000 Sr 
0.500000 0.000000 0.500000 Sr
0.500000 0.500000 0.000000 Sr
0.750000 0.250000 0.250000 F
0.250000 0.750000 0.750000 F
0.750000 0.750000 0.750000 F
0.250000 0.250000 0.250000 F
0.250000 0.250000 0.750000 F
0.750000 0.750000 0.250000 F
0.250000 0.750000 0.250000 F
0.750000 0.250000 0.750000 F
