         207
1.0
     8.1344458714414998     0.0000000000000000     0.0000000000000000
     0.0000000000000000     8.1344458714414998     0.0000000000000000
     0.0000000000000000     0.0000000000000000     8.1344458714414998
  Si
  28
Direct
  0.7827571034431000  0.5000000000000000  0.5000000000000000
  0.5000000000000000  0.7827571034431000  0.5000000000000000
  0.2172428965569000  0.5000000000000000  0.5000000000000000
  0.5000000000000000  0.2172428965569000  0.5000000000000000
  0.5000000000000000  0.5000000000000000  0.7827571034431000
  0.5000000000000000  0.5000000000000000  0.2172428965569000
  0.5000000000000000  0.7622220516205001  0.7622220516205001
  0.2377779483795000  0.5000000000000000  0.7622220516205001
  0.5000000000000000  0.2377779483795000  0.7622220516205001
  0.7622220516205001  0.5000000000000000  0.7622220516205001
  0.5000000000000000  0.2377779483795000  0.2377779483795000
  0.2377779483795000  0.5000000000000000  0.2377779483795000
  0.5000000000000000  0.7622220516205001  0.2377779483795000
  0.7622220516205001  0.5000000000000000  0.2377779483795000
  0.7622220516205001  0.2377779483795000  0.5000000000000000
  0.7622220516205001  0.7622220516205001  0.5000000000000000
  0.2377779483795000  0.2377779483795000  0.5000000000000000
  0.2377779483795000  0.7622220516205001  0.5000000000000000
  0.0000000000000000  0.1958687305450000  0.1958687305450000
  0.8041312694550000  0.0000000000000000  0.1958687305450000
  0.0000000000000000  0.8041312694550000  0.1958687305450000
  0.1958687305450000  0.0000000000000000  0.1958687305450000
  0.0000000000000000  0.8041312694550000  0.8041312694550000
  0.8041312694550000  0.0000000000000000  0.8041312694550000
  0.0000000000000000  0.1958687305450000  0.8041312694550000
  0.1958687305450000  0.0000000000000000  0.8041312694550000
  0.1958687305450000  0.8041312694550000  0.0000000000000000
  0.1958687305450000  0.1958687305450000  0.0000000000000000
