 207     8.1344    8.1344    8.1344   90.0000   90.0000   90.0000           538.2499
 1.0
       8.1344458714415       0.0000000000000       0.0000000000000
       0.0000000000000       8.1344458714415       0.0000000000000
       0.0000000000000       0.0000000000000       8.1344458714415
 Si
   28
 Direct
       0.7827571034431       0.5000000000000       0.5000000000000
       0.5000000000000       0.7827571034431       0.5000000000000
       0.2172428965569       0.5000000000000       0.5000000000000
       0.5000000000000       0.2172428965569       0.5000000000000
       0.5000000000000       0.5000000000000       0.7827571034431
       0.5000000000000       0.5000000000000       0.2172428965569
       0.5000000000000       0.7622220516205       0.7622220516205
       0.2377779483795       0.5000000000000       0.7622220516205
       0.5000000000000       0.2377779483795       0.7622220516205
       0.7622220516205       0.5000000000000       0.7622220516205
       0.5000000000000       0.2377779483795       0.2377779483795
       0.2377779483795       0.5000000000000       0.2377779483795
       0.5000000000000       0.7622220516205       0.2377779483795
       0.7622220516205       0.5000000000000       0.2377779483795
       0.7622220516205       0.2377779483795       0.5000000000000
       0.7622220516205       0.7622220516205       0.5000000000000
       0.2377779483795       0.2377779483795       0.5000000000000
       0.2377779483795       0.7622220516205       0.5000000000000
       0.0000000000000       0.1958687305450       0.1958687305450
       0.8041312694550       0.0000000000000       0.1958687305450
       0.0000000000000       0.8041312694550       0.1958687305450
       0.1958687305450       0.0000000000000       0.1958687305450
       0.0000000000000       0.8041312694550       0.8041312694550
       0.8041312694550       0.0000000000000       0.8041312694550
       0.0000000000000       0.1958687305450       0.8041312694550
       0.1958687305450       0.0000000000000       0.8041312694550
       0.1958687305450       0.8041312694550       0.0000000000000
       0.1958687305450       0.1958687305450       0.0000000000000
