         837
   1.00000000000000
     7.3767325804580102    0.0000000000000000    0.0000000000000000
    -2.2139644550980249    7.0366572287665967    0.0000000000000000
    -2.3832863745469242   -3.9778729605771610    5.6399518886459106
   Si
    14
Direct
  0.4664658124718457  0.8127609957163813  0.9015671202727731
  0.5651468698472542  0.0524246329719489  0.5115642363572022
  0.9957943246833736  0.5634238641616847  0.3097925744284638
  0.7130935500676969  0.5525507230219020  0.4069473169807551
  0.9670116752473987  0.6908378166415972  0.0586346031372571
  0.6856976337367868  0.4429093153759638  0.6687487447275373
  0.3597913998539397  0.4264969704146253  0.6701825361727458
  0.1000435002767688  0.2930227377256429  0.2885103607215243
  0.8301321893856723  0.9420070907686906  0.1761164631756316
  0.2069042065536522  0.1655953017877394  0.7563130440053243
  0.8178002835828764  0.9325827326495784  0.4933581594147896
  0.3118488127527215  0.9246475602170108  0.1286771691365587
  0.3288758833920511  0.2553992093351525  0.1338978691064554
  0.3383198102596765  0.9092663874934033  0.6362962761445417

