1095269  0.09  Si24
1.0
3.853757 0.000000 0.000000
0.000000 10.753094 0.000000
0.000000 0.000000 12.727496
Si
24
direct
0.000000 0.242727 0.945296 Si
0.500000 0.257273 0.054704 Si
0.000000 0.242727 0.554704 Si
0.500000 0.257273 0.445296 Si
0.500000 0.071237 0.157027 Si
0.000000 0.428763 0.842973 Si
0.500000 0.071237 0.342973 Si
0.000000 0.428763 0.657027 Si
0.000000 0.028659 0.909463 Si
0.500000 0.471341 0.090537 Si
0.000000 0.028659 0.590537 Si
0.500000 0.471341 0.409463 Si
0.500000 0.742727 0.945296 Si
0.000000 0.757273 0.054704 Si
0.500000 0.742727 0.554704 Si
0.000000 0.757273 0.445296 Si
0.000000 0.571237 0.157027 Si
0.500000 0.928763 0.842973 Si
0.000000 0.571237 0.342973 Si
0.500000 0.928763 0.657027 Si
0.500000 0.528659 0.909463 Si
0.000000 0.971341 0.090537 Si
0.500000 0.528659 0.590537 Si
0.000000 0.971341 0.409463 Si

