1199894  0.125  Si164
1.0
25.417457 0.000000 -1.836317
0.000000 15.220909 0.000000
0.000000 0.000000 9.902154
Si
164
direct
0.054256 0.400705 0.899068 Si
0.945744 0.400705 0.600932 Si
0.945744 0.599295 0.100932 Si
0.054256 0.599295 0.399068 Si
0.138958 0.460234 0.893795 Si
0.861042 0.460234 0.606205 Si
0.861042 0.539766 0.106205 Si
0.138958 0.539766 0.393795 Si
0.133517 0.590508 0.766613 Si
0.866483 0.590508 0.733387 Si
0.866483 0.409492 0.233387 Si
0.133517 0.409492 0.266613 Si
0.168768 0.715549 0.880721 Si
0.831232 0.715549 0.619279 Si
0.831232 0.284451 0.119279 Si
0.168768 0.284451 0.380721 Si
0.948986 0.605936 0.859384 Si
0.051014 0.605936 0.640616 Si
0.051014 0.394064 0.140616 Si
0.948986 0.394064 0.359384 Si
0.065646 0.889381 0.007366 Si
0.934354 0.889381 0.492634 Si
0.934354 0.110619 0.992634 Si
0.065646 0.110619 0.507366 Si
0.105631 0.824457 0.822047 Si
0.894369 0.824457 0.677953 Si
0.894369 0.175543 0.177953 Si
0.105631 0.175543 0.322047 Si
0.975214 0.848176 0.004482 Si
0.024786 0.848176 0.495518 Si
0.024786 0.151824 0.995518 Si
0.975214 0.151824 0.504482 Si
0.036941 0.757167 0.687398 Si
0.963059 0.757167 0.812602 Si
0.963059 0.242833 0.312602 Si
0.036941 0.242833 0.187398 Si
0.733481 0.617660 0.903726 Si
0.266519 0.617660 0.596274 Si
0.266519 0.382340 0.096274 Si
0.733481 0.382340 0.403726 Si
0.811295 0.536351 0.896188 Si
0.188705 0.536351 0.603812 Si
0.188705 0.463649 0.103812 Si
0.811295 0.463649 0.396188 Si
0.193950 0.407226 0.733411 Si
0.806050 0.407226 0.766589 Si
0.806050 0.592774 0.266589 Si
0.193950 0.592774 0.233411 Si
0.176533 0.273683 0.621646 Si
0.823467 0.273683 0.878354 Si
0.823467 0.726317 0.378354 Si
0.176533 0.726317 0.121646 Si
0.755771 0.731106 0.746988 Si
0.244229 0.731106 0.753012 Si
0.244229 0.268894 0.253012 Si
0.755771 0.268894 0.246988 Si
0.272956 0.367337 0.857980 Si
0.727044 0.367337 0.642020 Si
0.727044 0.632663 0.142020 Si
0.272956 0.632663 0.357980 Si
0.040435 0.252323 0.817710 Si
0.959565 0.252323 0.682290 Si
0.959565 0.747677 0.182290 Si
0.040435 0.747677 0.317710 Si
0.108187 0.183561 0.696530 Si
0.891813 0.183561 0.803470 Si
0.891813 0.816439 0.303470 Si
0.108187 0.816439 0.196530 Si
0.591293 0.540549 0.002912 Si
0.408707 0.540549 0.497088 Si
0.408707 0.459451 0.997088 Si
0.591293 0.459451 0.502912 Si
0.648518 0.566122 0.825508 Si
0.351482 0.566122 0.674492 Si
0.351482 0.433878 0.174492 Si
0.648518 0.433878 0.325508 Si
0.647141 0.433525 0.698931 Si
0.352859 0.433525 0.801069 Si
0.352859 0.566475 0.301069 Si
0.647141 0.566475 0.198931 Si
0.000000 0.498051 0.750000 Si
0.000000 0.501949 0.250000 Si
0.554256 0.900705 0.899068 Si
0.445744 0.900705 0.600932 Si
0.445744 0.099295 0.100932 Si
0.554256 0.099295 0.399068 Si
0.638958 0.960234 0.893795 Si
0.361042 0.960234 0.606205 Si
0.361042 0.039766 0.106205 Si
0.638958 0.039766 0.393795 Si
0.633517 0.090508 0.766613 Si
0.366483 0.090508 0.733387 Si
0.366483 0.909492 0.233387 Si
0.633517 0.909492 0.266613 Si
0.668768 0.215549 0.880721 Si
0.331232 0.215549 0.619279 Si
0.331232 0.784451 0.119279 Si
0.668768 0.784451 0.380721 Si
0.448986 0.105936 0.859384 Si
0.551014 0.105936 0.640616 Si
0.551014 0.894064 0.140616 Si
0.448986 0.894064 0.359384 Si
0.565646 0.389381 0.007366 Si
0.434354 0.389381 0.492634 Si
0.434354 0.610619 0.992634 Si
0.565646 0.610619 0.507366 Si
0.605631 0.324457 0.822047 Si
0.394369 0.324457 0.677953 Si
0.394369 0.675543 0.177953 Si
0.605631 0.675543 0.322047 Si
0.475214 0.348176 0.004482 Si
0.524786 0.348176 0.495518 Si
0.524786 0.651824 0.995518 Si
0.475214 0.651824 0.504482 Si
0.536941 0.257167 0.687398 Si
0.463059 0.257167 0.812602 Si
0.463059 0.742833 0.312602 Si
0.536941 0.742833 0.187398 Si
0.233481 0.117660 0.903726 Si
0.766519 0.117660 0.596274 Si
0.766519 0.882340 0.096274 Si
0.233481 0.882340 0.403726 Si
0.311295 0.036351 0.896188 Si
0.688705 0.036351 0.603812 Si
0.688705 0.963649 0.103812 Si
0.311295 0.963649 0.396188 Si
0.693950 0.907226 0.733411 Si
0.306050 0.907226 0.766589 Si
0.306050 0.092774 0.266589 Si
0.693950 0.092774 0.233411 Si
0.676533 0.773683 0.621646 Si
0.323467 0.773683 0.878354 Si
0.323467 0.226317 0.378354 Si
0.676533 0.226317 0.121646 Si
0.255771 0.231106 0.746988 Si
0.744229 0.231106 0.753012 Si
0.744229 0.768894 0.253012 Si
0.255771 0.768894 0.246988 Si
0.772956 0.867337 0.857980 Si
0.227044 0.867337 0.642020 Si
0.227044 0.132663 0.142020 Si
0.772956 0.132663 0.357980 Si
0.540435 0.752323 0.817710 Si
0.459565 0.752323 0.682290 Si
0.459565 0.247677 0.182290 Si
0.540435 0.247677 0.317710 Si
0.608187 0.683561 0.696530 Si
0.391813 0.683561 0.803470 Si
0.391813 0.316439 0.303470 Si
0.608187 0.316439 0.196530 Si
0.091293 0.040549 0.002912 Si
0.908707 0.040549 0.497088 Si
0.908707 0.959451 0.997088 Si
0.091293 0.959451 0.502912 Si
0.148518 0.066122 0.825508 Si
0.851482 0.066122 0.674492 Si
0.851482 0.933878 0.174492 Si
0.148518 0.933878 0.325508 Si
0.147141 0.933525 0.698931 Si
0.852859 0.933525 0.801069 Si
0.852859 0.066475 0.301069 Si
0.147141 0.066475 0.198931 Si
0.500000 0.998051 0.750000 Si
0.500000 0.001949 0.250000 Si

