1202745  0.145   Si58
1.0
10.018439 0.000000 0.000000
-5.009220 8.676223 0.000000
0.000000 0.000000 16.116778
Si
58
direct
0.620631 0.619603 0.204693 Si
0.998972 0.379369 0.204693 Si
0.380397 0.001028 0.204693 Si
0.620631 0.001028 0.204693 Si
0.380397 0.379369 0.204693 Si
0.998972 0.619603 0.204693 Si
0.379369 0.380397 0.795307 Si
0.001028 0.620631 0.795307 Si
0.619603 0.998972 0.795307 Si
0.379369 0.998972 0.795307 Si
0.619603 0.620631 0.795307 Si
0.001028 0.380397 0.795307 Si
0.755226 0.999351 0.326283 Si
0.244125 0.244774 0.326283 Si
0.000649 0.755875 0.326283 Si
0.755226 0.755875 0.326283 Si
0.000649 0.244774 0.326283 Si
0.244125 0.999351 0.326283 Si
0.244774 0.000649 0.673717 Si
0.755875 0.755226 0.673717 Si
0.999351 0.244125 0.673717 Si
0.244774 0.244125 0.673717 Si
0.999351 0.755226 0.673717 Si
0.755875 0.000649 0.673717 Si
0.578817 0.666466 0.441890 Si
0.087649 0.421183 0.441890 Si
0.333534 0.912351 0.441890 Si
0.578817 0.912351 0.441890 Si
0.333534 0.421183 0.441890 Si
0.087649 0.666466 0.441890 Si
0.421183 0.333534 0.558110 Si
0.912351 0.578817 0.558110 Si
0.666466 0.087649 0.558110 Si
0.421183 0.087649 0.558110 Si
0.666466 0.578817 0.558110 Si
0.912351 0.333534 0.558110 Si
0.733174 0.866587 0.000517 Si
0.133413 0.266826 0.000517 Si
0.133413 0.866587 0.000517 Si
0.266826 0.133413 0.999483 Si
0.866587 0.733174 0.999483 Si
0.866587 0.133413 0.999483 Si
0.582622 0.791311 0.878377 Si
0.208689 0.417378 0.878377 Si
0.208689 0.791311 0.878377 Si
0.417378 0.208689 0.121623 Si
0.791311 0.582622 0.121623 Si
0.791311 0.208689 0.121623 Si
0.582981 0.791491 0.123005 Si
0.208509 0.417019 0.123005 Si
0.208509 0.791491 0.123005 Si
0.417019 0.208509 0.876995 Si
0.791491 0.582981 0.876995 Si
0.791491 0.208509 0.876995 Si
0.333333 0.666667 0.072895 Si
0.666667 0.333333 0.927105 Si
0.333333 0.666667 0.928619 Si
0.666667 0.333333 0.071381 Si

