1203790  0.058    Si68
1.0
10.411407 0.000000 0.000000
-5.205704 9.016543 0.000000
0.000000 0.000000 17.056181
Si
68
direct
0.049839 0.719417 0.435444 Si
0.280583 0.330423 0.435444 Si
0.669577 0.950161 0.435444 Si
0.280583 0.950161 0.435444 Si
0.669577 0.719417 0.435444 Si
0.049839 0.330423 0.435444 Si
0.950161 0.280583 0.564556 Si
0.719417 0.669577 0.564556 Si
0.330423 0.049839 0.564556 Si
0.719417 0.049839 0.564556 Si
0.330423 0.280583 0.564556 Si
0.950161 0.669577 0.564556 Si
0.950161 0.280583 0.935444 Si
0.719417 0.669577 0.935444 Si
0.330423 0.049839 0.935444 Si
0.719417 0.049839 0.935444 Si
0.330423 0.280583 0.935444 Si
0.950161 0.669577 0.935444 Si
0.049839 0.719417 0.064556 Si
0.280583 0.330423 0.064556 Si
0.669577 0.950161 0.064556 Si
0.280583 0.950161 0.064556 Si
0.669577 0.719417 0.064556 Si
0.049839 0.330423 0.064556 Si
0.084253 0.542126 0.135221 Si
0.457874 0.542126 0.135221 Si
0.457874 0.915747 0.135221 Si
0.915747 0.457874 0.864779 Si
0.542126 0.457874 0.864779 Si
0.542126 0.084253 0.864779 Si
0.915747 0.457874 0.635221 Si
0.542126 0.457874 0.635221 Si
0.542126 0.084253 0.635221 Si
0.084253 0.542126 0.364779 Si
0.457874 0.542126 0.364779 Si
0.457874 0.915747 0.364779 Si
0.123462 0.246924 0.638715 Si
0.753076 0.876538 0.638715 Si
0.123462 0.876538 0.638715 Si
0.876538 0.753076 0.361285 Si
0.246924 0.123462 0.361285 Si
0.876538 0.123462 0.361285 Si
0.876538 0.753076 0.138715 Si
0.246924 0.123462 0.138715 Si
0.876538 0.123462 0.138715 Si
0.123462 0.246924 0.861285 Si
0.753076 0.876538 0.861285 Si
0.123462 0.876538 0.861285 Si
0.333333 0.666667 0.180422 Si
0.666667 0.333333 0.819578 Si
0.666667 0.333333 0.680422 Si
0.333333 0.666667 0.319578 Si
0.000000 0.000000 0.181701 Si
0.000000 0.000000 0.818299 Si
0.000000 0.000000 0.681701 Si
0.000000 0.000000 0.318299 Si
0.069276 0.534638 0.750000 Si
0.465362 0.534638 0.750000 Si
0.465362 0.930724 0.750000 Si
0.930724 0.465362 0.250000 Si
0.534638 0.465362 0.250000 Si
0.534638 0.069276 0.250000 Si
0.202200 0.404399 0.750000 Si
0.595601 0.797800 0.750000 Si
0.202200 0.797800 0.750000 Si
0.797800 0.595601 0.250000 Si
0.404399 0.202200 0.250000 Si
0.797800 0.202200 0.250000 Si

