571520  0.161  Si24
1.0
9.443181 0.000000 0.000000
-4.721591 8.178035 0.000000
0.000000 0.000000 5.674269
Si
24
direct
0.368448 0.435103 0.914929 Si
0.298219 0.898231 0.418405 Si
0.000000 0.000000 0.286929 Si
0.435103 0.066655 0.085071 Si
0.266678 0.035114 0.751738 Si
0.231564 0.266678 0.248262 Si
0.000000 0.000000 0.713071 Si
0.399988 0.298219 0.581595 Si
0.035114 0.768436 0.248262 Si
0.964886 0.231564 0.751738 Si
0.666667 0.333333 0.620262 Si
0.101769 0.399988 0.418405 Si
0.933345 0.368448 0.085071 Si
0.898231 0.600012 0.581595 Si
0.666667 0.333333 0.046404 Si
0.066655 0.631552 0.914929 Si
0.701781 0.101769 0.581595 Si
0.631552 0.564897 0.085071 Si
0.333333 0.666667 0.953596 Si
0.768436 0.733322 0.751738 Si
0.600012 0.701781 0.418405 Si
0.564897 0.933345 0.914929 Si
0.333333 0.666667 0.379738 Si
0.733322 0.964886 0.248262 Si

