1196961  0.081   Si40
1.0
10.221460 0.000000 0.000000
-5.110730 8.852044 0.000000
0.000000 0.000000 10.388793
Si
40
direct
0.790608 0.581216 0.687595 Si
0.209392 0.418784 0.687595 Si
0.418784 0.209392 0.312405 Si
0.581216 0.790608 0.312405 Si
0.209392 0.418784 0.312405 Si
0.790608 0.581216 0.312405 Si
0.581216 0.790608 0.687595 Si
0.418784 0.209392 0.687595 Si
0.619845 0.000000 0.812697 Si
0.380155 0.000000 0.812697 Si
0.000000 0.380155 0.187303 Si
0.000000 0.619845 0.187303 Si
0.380155 0.000000 0.187303 Si
0.619845 0.000000 0.187303 Si
0.000000 0.619845 0.812697 Si
0.000000 0.380155 0.812697 Si
0.619845 0.619845 0.812697 Si
0.380155 0.380155 0.812697 Si
0.380155 0.380155 0.187303 Si
0.619845 0.619845 0.187303 Si
0.867683 0.132317 0.500000 Si
0.132317 0.867683 0.500000 Si
0.790608 0.209392 0.687595 Si
0.209392 0.790608 0.687595 Si
0.790608 0.209392 0.312405 Si
0.209392 0.790608 0.312405 Si
0.666667 0.333333 0.612256 Si
0.333333 0.666667 0.612256 Si
0.666667 0.333333 0.387744 Si
0.333333 0.666667 0.387744 Si
0.867683 0.735365 0.500000 Si
0.132317 0.264635 0.500000 Si
0.264635 0.132317 0.500000 Si
0.735365 0.867683 0.500000 Si
0.757790 0.757790 0.000000 Si
0.242210 0.242210 0.000000 Si
0.757790 0.000000 0.000000 Si
0.242210 0.000000 0.000000 Si
0.000000 0.242210 0.000000 Si
0.000000 0.757790 0.000000 Si

