1072544  0.222  Si12
1.0
6.732016 0.000000 0.000000
0.000000 6.732016 0.000000
0.000000 0.000000 6.732016
Si
12
direct
0.500000 0.000000 0.750000 Si
0.500000 0.750000 0.000000 Si
0.750000 0.000000 0.500000 Si
0.000000 0.750000 0.500000 Si
0.000000 0.500000 0.750000 Si
0.750000 0.500000 0.000000 Si
0.000000 0.500000 0.250000 Si
0.000000 0.250000 0.500000 Si
0.250000 0.500000 0.000000 Si
0.500000 0.250000 0.000000 Si
0.500000 0.000000 0.250000 Si
0.250000 0.000000 0.500000 Si

