1120747   0.459   Si6
1.0
5.092375 0.000000 0.000000
-2.546187 4.410126 0.000000
0.000000 0.000000 4.419092
Si
6
direct
0.670035 0.835017 0.250000 Si
0.835017 0.164983 0.750000 Si
0.164983 0.329965 0.250000 Si
0.835017 0.670035 0.750000 Si
0.329965 0.164983 0.750000 Si
0.164983 0.835017 0.250000 Si

