971662  0.063  Si46
1.0
10.227360 0.000000 0.000000
0.000000 10.227360 0.000000
0.000000 0.000000 10.227360
Si
46
direct
0.000000 0.882820 0.307890 Si
0.000000 0.117180 0.692110 Si
0.000000 0.117180 0.307890 Si
0.000000 0.882820 0.692110 Si
0.307890 0.000000 0.882820 Si
0.382820 0.500000 0.192110 Si
0.692110 0.000000 0.117180 Si
0.617180 0.500000 0.807890 Si
0.307890 0.000000 0.117180 Si
0.617180 0.500000 0.192110 Si
0.692110 0.000000 0.882820 Si
0.382820 0.500000 0.807890 Si
0.882820 0.307890 0.000000 Si
0.500000 0.807890 0.617180 Si
0.117180 0.692110 0.000000 Si
0.500000 0.192110 0.382820 Si
0.882820 0.692110 0.000000 Si
0.500000 0.192110 0.617180 Si
0.117180 0.307890 0.000000 Si
0.500000 0.807890 0.382820 Si
0.192110 0.382820 0.500000 Si
0.807890 0.617180 0.500000 Si
0.192110 0.617180 0.500000 Si
0.807890 0.382820 0.500000 Si
0.250000 0.500000 0.000000 Si
0.750000 0.500000 0.000000 Si
0.000000 0.250000 0.500000 Si
0.000000 0.750000 0.500000 Si
0.500000 0.000000 0.250000 Si
0.500000 0.000000 0.750000 Si
0.816380 0.816380 0.816380 Si
0.183620 0.183620 0.183620 Si
0.183620 0.183620 0.816380 Si
0.183620 0.816380 0.183620 Si
0.316380 0.316380 0.683620 Si
0.816380 0.816380 0.183620 Si
0.816380 0.183620 0.816380 Si
0.683620 0.683620 0.316380 Si
0.816380 0.183620 0.183620 Si
0.683620 0.683620 0.683620 Si
0.183620 0.816380 0.816380 Si
0.316380 0.316380 0.316380 Si
0.316380 0.683620 0.316380 Si
0.683620 0.316380 0.683620 Si
0.683620 0.316380 0.316380 Si
0.316380 0.683620 0.683620 Si

