1079297   0.071    Si16
1.0
13.789695 0.000000 -1.647489
0.000000 3.871739 0.000000
0.000000 0.000000 6.360895
Si
16
direct
0.944277 0.000000 0.126071 Si
0.555723 0.500000 0.873929 Si
0.940783 0.500000 0.346284 Si
0.559217 0.000000 0.653716 Si
0.787043 0.000000 0.942929 Si
0.712957 0.500000 0.057071 Si
0.772750 0.500000 0.414273 Si
0.727250 0.000000 0.585727 Si
0.444277 0.500000 0.126071 Si
0.055723 0.000000 0.873929 Si
0.440783 0.000000 0.346284 Si
0.059217 0.500000 0.653716 Si
0.287043 0.500000 0.942929 Si
0.212957 0.000000 0.057071 Si
0.272750 0.000000 0.414273 Si
0.227250 0.500000 0.585727 Si

