1056579  0.485    Si2
1.0
3.353369 0.000000 0.000000
0.000000 3.353369 0.000000
0.000000 0.000000 2.575348
Si
2
direct
0.500000 0.500000 0.500000 Si
0.000000 0.000000 0.000000 Si

