1204627  0.097  Si92
1.0
12.881713 0.000000 0.000000
0.000000 16.811802 0.000000
0.000000 0.000000 10.034209
Si
92
direct
0.212587 0.118952 0.059025 Si
0.787413 0.118952 0.940975 Si
0.212587 0.118952 0.440975 Si
0.787413 0.118952 0.559025 Si
0.787413 0.881048 0.940975 Si
0.212587 0.881048 0.059025 Si
0.787413 0.881048 0.559025 Si
0.212587 0.881048 0.440975 Si
0.375473 0.176002 0.126508 Si
0.624527 0.176002 0.873492 Si
0.375473 0.176002 0.373492 Si
0.624527 0.176002 0.626508 Si
0.624527 0.823998 0.873492 Si
0.375473 0.823998 0.126508 Si
0.624527 0.823998 0.626508 Si
0.375473 0.823998 0.373492 Si
0.418552 0.307870 0.059231 Si
0.581448 0.307870 0.940769 Si
0.418552 0.307870 0.440769 Si
0.581448 0.307870 0.559231 Si
0.581448 0.692130 0.940769 Si
0.418552 0.692130 0.059231 Si
0.581448 0.692130 0.559231 Si
0.418552 0.692130 0.440769 Si
0.500000 0.100861 0.000000 Si
0.500000 0.100861 0.500000 Si
0.500000 0.899139 0.000000 Si
0.500000 0.899139 0.500000 Si
0.248073 0.000000 0.939056 Si
0.751927 0.000000 0.060944 Si
0.248073 0.000000 0.560944 Si
0.751927 0.000000 0.439056 Si
0.420833 0.000000 0.868857 Si
0.579167 0.000000 0.131143 Si
0.420833 0.000000 0.631143 Si
0.579167 0.000000 0.368857 Si
0.544156 0.384236 0.750000 Si
0.455844 0.384236 0.250000 Si
0.455844 0.615764 0.250000 Si
0.544156 0.615764 0.750000 Si
0.871637 0.070779 0.750000 Si
0.128363 0.070779 0.250000 Si
0.128363 0.929221 0.250000 Si
0.871637 0.929221 0.750000 Si
0.143848 0.000000 0.750000 Si
0.856152 0.000000 0.250000 Si
0.712587 0.618952 0.059025 Si
0.287413 0.618952 0.940975 Si
0.712587 0.618952 0.440975 Si
0.287413 0.618952 0.559025 Si
0.287413 0.381048 0.940975 Si
0.712587 0.381048 0.059025 Si
0.287413 0.381048 0.559025 Si
0.712587 0.381048 0.440975 Si
0.875473 0.676002 0.126508 Si
0.124527 0.676002 0.873492 Si
0.875473 0.676002 0.373492 Si
0.124527 0.676002 0.626508 Si
0.124527 0.323998 0.873492 Si
0.875473 0.323998 0.126508 Si
0.124527 0.323998 0.626508 Si
0.875473 0.323998 0.373492 Si
0.918552 0.807870 0.059231 Si
0.081448 0.807870 0.940769 Si
0.918552 0.807870 0.440769 Si
0.081448 0.807870 0.559231 Si
0.081448 0.192130 0.940769 Si
0.918552 0.192130 0.059231 Si
0.081448 0.192130 0.559231 Si
0.918552 0.192130 0.440769 Si
0.000000 0.600861 0.000000 Si
0.000000 0.600861 0.500000 Si
0.000000 0.399139 0.000000 Si
0.000000 0.399139 0.500000 Si
0.748073 0.500000 0.939056 Si
0.251927 0.500000 0.060944 Si
0.748073 0.500000 0.560944 Si
0.251927 0.500000 0.439056 Si
0.920833 0.500000 0.868857 Si
0.079167 0.500000 0.131143 Si
0.920833 0.500000 0.631143 Si
0.079167 0.500000 0.368857 Si
0.044156 0.884236 0.750000 Si
0.955844 0.884236 0.250000 Si
0.955844 0.115764 0.250000 Si
0.044156 0.115764 0.750000 Si
0.371637 0.570779 0.750000 Si
0.628363 0.570779 0.250000 Si
0.628363 0.429221 0.250000 Si
0.371637 0.429221 0.750000 Si
0.643848 0.500000 0.750000 Si
0.356152 0.500000 0.250000 Si

