1204046   0.179   Si106
1.0
10.177411 0.000000 0.000000
0.000000 10.177411 0.000000
0.000000 0.000000 24.227295
Si
106
direct
0.184245 0.316753 0.971264 Si
0.815755 0.683247 0.971264 Si
0.684245 0.816753 0.528736 Si
0.315755 0.183247 0.528736 Si
0.815755 0.316753 0.971264 Si
0.184245 0.683247 0.971264 Si
0.315755 0.816753 0.528736 Si
0.684245 0.183247 0.528736 Si
0.683247 0.184245 0.028736 Si
0.316753 0.815755 0.028736 Si
0.183247 0.684245 0.471264 Si
0.816753 0.315755 0.471264 Si
0.316753 0.184245 0.028736 Si
0.683247 0.815755 0.028736 Si
0.816753 0.684245 0.471264 Si
0.183247 0.315755 0.471264 Si
0.377933 0.294178 0.111379 Si
0.622067 0.705822 0.111379 Si
0.877933 0.794178 0.388621 Si
0.122067 0.205822 0.388621 Si
0.622067 0.294178 0.111379 Si
0.377933 0.705822 0.111379 Si
0.122067 0.794178 0.388621 Si
0.877933 0.205822 0.388621 Si
0.705822 0.377933 0.888621 Si
0.294178 0.622067 0.888621 Si
0.205822 0.877933 0.611379 Si
0.794178 0.122067 0.611379 Si
0.294178 0.377933 0.888621 Si
0.705822 0.622067 0.888621 Si
0.794178 0.877933 0.611379 Si
0.205822 0.122067 0.611379 Si
0.254706 0.179656 0.183173 Si
0.745294 0.820344 0.183173 Si
0.754706 0.679656 0.316827 Si
0.245294 0.320344 0.316827 Si
0.745294 0.179656 0.183173 Si
0.254706 0.820344 0.183173 Si
0.245294 0.679656 0.316827 Si
0.754706 0.320344 0.316827 Si
0.820344 0.254706 0.816827 Si
0.179656 0.745294 0.816827 Si
0.320344 0.754706 0.683173 Si
0.679656 0.245294 0.683173 Si
0.179656 0.254706 0.816827 Si
0.820344 0.745294 0.816827 Si
0.679656 0.754706 0.683173 Si
0.320344 0.245294 0.683173 Si
0.117322 0.319529 0.234897 Si
0.882678 0.680471 0.234897 Si
0.617322 0.819529 0.265103 Si
0.382678 0.180471 0.265103 Si
0.882678 0.319529 0.234897 Si
0.117322 0.680471 0.234897 Si
0.382678 0.819529 0.265103 Si
0.617322 0.180471 0.265103 Si
0.680471 0.117322 0.765103 Si
0.319529 0.882678 0.765103 Si
0.180471 0.617322 0.734897 Si
0.819529 0.382678 0.734897 Si
0.319529 0.117322 0.765103 Si
0.680471 0.882678 0.765103 Si
0.819529 0.617322 0.734897 Si
0.180471 0.382678 0.734897 Si
0.189884 0.000000 0.053878 Si
0.810116 0.000000 0.053878 Si
0.689884 0.500000 0.446122 Si
0.310116 0.500000 0.446122 Si
0.000000 0.189884 0.946122 Si
0.000000 0.810116 0.946122 Si
0.500000 0.689884 0.553878 Si
0.500000 0.310116 0.553878 Si
0.129999 0.000000 0.147806 Si
0.870001 0.000000 0.147806 Si
0.629999 0.500000 0.352194 Si
0.370001 0.500000 0.352194 Si
0.000000 0.129999 0.852194 Si
0.000000 0.870001 0.852194 Si
0.500000 0.629999 0.647806 Si
0.500000 0.370001 0.647806 Si
0.119550 0.500000 0.024432 Si
0.880450 0.500000 0.024432 Si
0.619550 0.000000 0.475568 Si
0.380450 0.000000 0.475568 Si
0.500000 0.119550 0.975568 Si
0.500000 0.880450 0.975568 Si
0.000000 0.619550 0.524432 Si
0.000000 0.380450 0.524432 Si
0.264359 0.500000 0.103211 Si
0.735641 0.500000 0.103211 Si
0.764359 0.000000 0.396789 Si
0.235641 0.000000 0.396789 Si
0.500000 0.264359 0.896789 Si
0.500000 0.735641 0.896789 Si
0.000000 0.764359 0.603211 Si
0.000000 0.235641 0.603211 Si
0.116182 0.500000 0.176836 Si
0.883818 0.500000 0.176836 Si
0.616182 0.000000 0.323164 Si
0.383818 0.000000 0.323164 Si
0.500000 0.116182 0.823164 Si
0.500000 0.883818 0.823164 Si
0.000000 0.616182 0.676836 Si
0.000000 0.383818 0.676836 Si
0.500000 0.500000 0.500000 Si
0.000000 0.000000 0.000000 Si

