92  0.290   Si4
1.0
4.811086 0.000000 0.000000
0.000000 4.811086 0.000000
0.000000 0.000000 2.649795
Si
4
direct
0.500000 0.000000 0.250000 Si
0.000000 0.000000 0.000000 Si
0.000000 0.500000 0.750000 Si
0.500000 0.500000 0.500000 Si

