10649  0.495    Si2
1.0
2.702525 0.000000 0.000000
-1.351263 2.340456 0.000000
0.000000 0.000000 4.537586
Si
2
direct
0.333333 0.666667 0.250000 Si
0.666667 0.333333 0.750000 Si

