1200830  0.111  Si82
1.0
12.490460 0.000000 0.000000
0.000000 12.490460 0.000000
0.000000 0.000000 12.490460
Si
82
direct
0.868920 0.263688 0.522880 Si
0.477120 0.131080 0.263688 Si
0.236312 0.022880 0.631080 Si
0.236312 0.631080 0.022880 Si
0.868920 0.522880 0.263688 Si
0.477120 0.263688 0.131080 Si
0.631080 0.236312 0.022880 Si
0.522880 0.868920 0.263688 Si
0.263688 0.477120 0.131080 Si
0.263688 0.868920 0.522880 Si
0.131080 0.477120 0.263688 Si
0.022880 0.236312 0.631080 Si
0.131080 0.263688 0.477120 Si
0.022880 0.631080 0.236312 Si
0.263688 0.522880 0.868920 Si
0.263688 0.131080 0.477120 Si
0.631080 0.022880 0.236312 Si
0.522880 0.263688 0.868920 Si
0.368920 0.236312 0.977120 Si
0.977120 0.368920 0.236312 Si
0.236312 0.977120 0.368920 Si
0.236312 0.368920 0.977120 Si
0.368920 0.977120 0.236312 Si
0.977120 0.236312 0.368920 Si
0.108688 0.108688 0.891312 Si
0.108688 0.891312 0.108688 Si
0.391312 0.391312 0.391312 Si
0.891312 0.108688 0.108688 Si
0.000000 0.000000 0.000000 Si
0.291249 0.931966 0.068034 Si
0.431966 0.208751 0.431966 Si
0.068034 0.068034 0.708751 Si
0.068034 0.708751 0.068034 Si
0.291249 0.068034 0.931966 Si
0.431966 0.431966 0.208751 Si
0.708751 0.068034 0.068034 Si
0.068034 0.291249 0.931966 Si
0.931966 0.291249 0.068034 Si
0.208751 0.431966 0.431966 Si
0.931966 0.068034 0.291249 Si
0.068034 0.931966 0.291249 Si
0.368920 0.763688 0.022880 Si
0.977120 0.631080 0.763688 Si
0.736312 0.522880 0.131080 Si
0.736312 0.131080 0.522880 Si
0.368920 0.022880 0.763688 Si
0.977120 0.763688 0.631080 Si
0.131080 0.736312 0.522880 Si
0.022880 0.368920 0.763688 Si
0.763688 0.977120 0.631080 Si
0.763688 0.368920 0.022880 Si
0.631080 0.977120 0.763688 Si
0.522880 0.736312 0.131080 Si
0.631080 0.763688 0.977120 Si
0.522880 0.131080 0.736312 Si
0.763688 0.022880 0.368920 Si
0.763688 0.631080 0.977120 Si
0.131080 0.522880 0.736312 Si
0.022880 0.763688 0.368920 Si
0.868920 0.736312 0.477120 Si
0.477120 0.868920 0.736312 Si
0.736312 0.477120 0.868920 Si
0.736312 0.868920 0.477120 Si
0.868920 0.477120 0.736312 Si
0.477120 0.736312 0.868920 Si
0.608688 0.608688 0.391312 Si
0.608688 0.391312 0.608688 Si
0.891312 0.891312 0.891312 Si
0.391312 0.608688 0.608688 Si
0.500000 0.500000 0.500000 Si
0.791249 0.431966 0.568034 Si
0.931966 0.708751 0.931966 Si
0.568034 0.568034 0.208751 Si
0.568034 0.208751 0.568034 Si
0.791249 0.568034 0.431966 Si
0.931966 0.931966 0.708751 Si
0.208751 0.568034 0.568034 Si
0.568034 0.791249 0.431966 Si
0.431966 0.791249 0.568034 Si
0.708751 0.931966 0.931966 Si
0.431966 0.568034 0.791249 Si
0.568034 0.431966 0.791249 Si

