1079649  0.428   Si16
1.0
5.154688 0.000000 0.000000
0.000000 8.750444 0.000000
0.000000 0.000000 5.183067
Si
16
direct
0.344380 0.000000 0.825870 Si
0.655620 0.000000 0.174130 Si
0.155620 0.000000 0.325870 Si
0.844380 0.000000 0.674130 Si
0.500000 0.794285 0.500000 Si
0.500000 0.294285 0.000000 Si
0.500000 0.205715 0.500000 Si
0.500000 0.705715 0.000000 Si
0.844380 0.500000 0.825870 Si
0.155620 0.500000 0.174130 Si
0.655620 0.500000 0.325870 Si
0.344380 0.500000 0.674130 Si
0.000000 0.294285 0.500000 Si
0.000000 0.794285 0.000000 Si
0.000000 0.705715 0.500000 Si
0.000000 0.205715 0.000000 Si

