168  0.159  Si16
1.0
6.655650 0.000000 0.000000
0.000000 6.655650 0.000000
0.000000 0.000000 6.655650
Si
16
direct
0.601557 0.601557 0.601557 Si
0.101557 0.898443 0.398443 Si
0.398443 0.101557 0.898443 Si
0.398443 0.898443 0.601557 Si
0.898443 0.898443 0.898443 Si
0.398443 0.601557 0.101557 Si
0.601557 0.898443 0.101557 Si
0.101557 0.601557 0.898443 Si
0.101557 0.101557 0.101557 Si
0.601557 0.398443 0.898443 Si
0.898443 0.601557 0.398443 Si
0.898443 0.398443 0.101557 Si
0.398443 0.398443 0.398443 Si
0.898443 0.101557 0.601557 Si
0.101557 0.398443 0.601557 Si
0.601557 0.101557 0.398443 Si

