1014212   0.518    Si2
1.0
3.077818 0.000000 0.000000
0.000000 3.077818 0.000000
0.000000 0.000000 3.077818
Si
2
direct
0.000000 0.000000 0.000000 Si
0.500000 0.500000 0.500000 Si

