1245041  0.310   Si100
1.0
12.305311 0.000000 3.591960
1.995322 12.055754 4.107933
0.000000 0.000000 12.930197
Si
100
direct
0.659221 0.883672 0.168841 Si
0.317227 0.058932 0.610024 Si
0.538720 0.120246 0.726731 Si
0.549398 0.852182 0.350605 Si
0.061970 0.903925 0.991149 Si
0.059262 0.485770 0.242009 Si
0.325829 0.366139 0.802085 Si
0.282442 0.296047 0.134519 Si
0.398646 0.567081 0.503499 Si
0.124857 0.590453 0.927030 Si
0.024598 0.953364 0.759825 Si
0.848828 0.639840 0.653235 Si
0.908086 0.350687 0.630709 Si
0.198639 0.725438 0.643074 Si
0.575367 0.528495 0.721894 Si
0.291212 0.432716 0.365262 Si
0.676620 0.717241 0.119694 Si
0.475710 0.044840 0.331134 Si
0.994938 0.040571 0.572656 Si
0.202379 0.126248 0.159857 Si
0.361011 0.600045 0.977720 Si
0.943328 0.088881 0.307294 Si
0.900797 0.087598 0.050986 Si
0.688354 0.336425 0.207239 Si
0.412110 0.617255 0.662766 Si
0.420939 0.056965 0.903940 Si
0.447618 0.364007 0.102545 Si
0.565386 0.427206 0.915345 Si
0.133764 0.427401 0.080015 Si
0.225311 0.905432 0.730377 Si
0.272222 0.838497 0.905066 Si
0.914664 0.866776 0.935922 Si
0.934599 0.537241 0.516598 Si
0.115932 0.652234 0.227012 Si
0.817814 0.998705 0.570725 Si
0.244304 0.933416 0.163313 Si
0.776002 0.024490 0.328239 Si
0.184460 0.395105 0.705184 Si
0.863453 0.313647 0.371544 Si
0.019158 0.159487 0.118900 Si
0.063169 0.922349 0.272328 Si
0.286764 0.068215 0.429261 Si
0.052209 0.309183 0.385276 Si
0.981907 0.095273 0.860246 Si
0.017129 0.786081 0.436943 Si
0.110487 0.597755 0.429270 Si
0.517282 0.167794 0.976296 Si
0.140584 0.152688 0.861151 Si
0.055284 0.849882 0.570372 Si
0.045556 0.334992 0.868651 Si
0.255732 0.270536 0.335777 Si
0.913643 0.760420 0.719776 Si
0.710098 0.469021 0.418085 Si
0.570451 0.963090 0.016418 Si
0.694477 0.764289 0.449340 Si
0.589722 0.084724 0.424709 Si
0.383091 0.532587 0.174987 Si
0.576523 0.506898 0.150680 Si
0.174427 0.694205 0.024228 Si
0.248032 0.993719 0.967712 Si
0.587648 0.832670 0.725181 Si
0.436479 0.387496 0.469463 Si
0.605765 0.585898 0.282385 Si
0.684653 0.160987 0.827107 Si
0.884853 0.576296 0.209921 Si
0.718752 0.281538 0.918769 Si
0.993365 0.824908 0.186882 Si
0.948528 0.617319 0.883120 Si
0.613512 0.410219 0.606870 Si
0.880809 0.349946 0.818118 Si
0.824865 0.530919 0.843745 Si
0.663940 0.685445 0.641753 Si
0.327852 0.217647 0.966643 Si
0.309454 0.538007 0.839563 Si
0.724231 0.201051 0.107407 Si
0.508887 0.011075 0.620925 Si
0.361210 0.752247 0.193490 Si
0.539217 0.170154 0.153228 Si
0.499450 0.726445 0.902585 Si
0.359476 0.811942 0.603421 Si
0.818818 0.937566 0.181228 Si
0.276368 0.860596 0.447182 Si
0.055647 0.217381 0.578868 Si
0.637552 0.563747 0.950344 Si
0.862377 0.692256 0.033107 Si
0.604966 0.272204 0.401654 Si
0.202492 0.217567 0.663277 Si
0.743322 0.968539 0.888286 Si
0.515299 0.791846 0.046538 Si
0.825488 0.865361 0.466058 Si
0.811431 0.609477 0.390336 Si
0.748256 0.190322 0.504869 Si
0.745084 0.888717 0.748511 Si
0.206616 0.570783 0.569931 Si
0.441464 0.721908 0.348853 Si
0.099287 0.120856 0.360713 Si
0.846186 0.411037 0.186767 Si
0.464825 0.310416 0.656813 Si
0.999150 0.351445 0.053224 Si
0.756658 0.266934 0.646242 Si

