1268191  0.350   Si6
1.0
6.887153 0.000000 0.000000
-3.443577 5.964449 0.000000
0.000000 0.000000 2.464314
Si
6
direct
0.145393 0.718647 0.000000 Si
0.281353 0.426746 0.000000 Si
0.573254 0.854607 0.000000 Si
0.854607 0.281353 0.000000 Si
0.718647 0.573254 0.000000 Si
0.426746 0.145393 0.000000 Si

