16220  0.340  Si136
1.0
14.739068 0.000000 0.000000
0.000000 14.739068 0.000000
0.000000 0.000000 14.739068
Si
136
direct
0.000000 0.000000 0.500000 Si
0.250000 0.250000 0.750000 Si
0.889692 0.889692 0.389692 Si
0.860308 0.139692 0.139692 Si
0.139692 0.860308 0.139692 Si
0.139692 0.139692 0.860308 Si
0.110308 0.389692 0.110308 Si
0.110308 0.110308 0.389692 Si
0.389692 0.110308 0.110308 Si
0.360308 0.360308 0.860308 Si
0.252891 0.558646 0.058646 Si
0.191354 0.002891 0.308646 Si
0.808646 0.997109 0.308646 Si
0.808646 0.808646 0.497109 Si
0.191354 0.308646 0.002891 Si
0.002891 0.308646 0.191354 Si
0.002891 0.191354 0.308646 Si
0.558646 0.252891 0.058646 Si
0.558646 0.558646 0.752891 Si
0.941354 0.058646 0.247109 Si
0.941354 0.247109 0.058646 Si
0.441354 0.252891 0.941354 Si
0.058646 0.941354 0.247109 Si
0.058646 0.247109 0.941354 Si
0.441354 0.441354 0.752891 Si
0.308646 0.191354 0.002891 Si
0.308646 0.002891 0.191354 Si
0.997109 0.808646 0.308646 Si
0.997109 0.691354 0.191354 Si
0.691354 0.997109 0.191354 Si
0.691354 0.691354 0.497109 Si
0.247109 0.941354 0.058646 Si
0.247109 0.058646 0.941354 Si
0.252891 0.441354 0.941354 Si
0.000000 0.500000 0.000000 Si
0.250000 0.750000 0.250000 Si
0.889692 0.389692 0.889692 Si
0.860308 0.639692 0.639692 Si
0.139692 0.360308 0.639692 Si
0.139692 0.639692 0.360308 Si
0.110308 0.889692 0.610308 Si
0.110308 0.610308 0.889692 Si
0.389692 0.610308 0.610308 Si
0.360308 0.860308 0.360308 Si
0.252891 0.058646 0.558646 Si
0.191354 0.502891 0.808646 Si
0.808646 0.497109 0.808646 Si
0.808646 0.308646 0.997109 Si
0.191354 0.808646 0.502891 Si
0.002891 0.808646 0.691354 Si
0.002891 0.691354 0.808646 Si
0.558646 0.752891 0.558646 Si
0.558646 0.058646 0.252891 Si
0.941354 0.558646 0.747109 Si
0.941354 0.747109 0.558646 Si
0.441354 0.752891 0.441354 Si
0.058646 0.441354 0.747109 Si
0.058646 0.747109 0.441354 Si
0.441354 0.941354 0.252891 Si
0.308646 0.691354 0.502891 Si
0.308646 0.502891 0.691354 Si
0.997109 0.308646 0.808646 Si
0.997109 0.191354 0.691354 Si
0.691354 0.497109 0.691354 Si
0.691354 0.191354 0.997109 Si
0.247109 0.441354 0.558646 Si
0.247109 0.558646 0.441354 Si
0.252891 0.941354 0.441354 Si
0.500000 0.000000 0.000000 Si
0.750000 0.250000 0.250000 Si
0.389692 0.889692 0.889692 Si
0.360308 0.139692 0.639692 Si
0.639692 0.860308 0.639692 Si
0.639692 0.139692 0.360308 Si
0.610308 0.389692 0.610308 Si
0.610308 0.110308 0.889692 Si
0.889692 0.110308 0.610308 Si
0.860308 0.360308 0.360308 Si
0.752891 0.558646 0.558646 Si
0.691354 0.002891 0.808646 Si
0.308646 0.997109 0.808646 Si
0.308646 0.808646 0.997109 Si
0.691354 0.308646 0.502891 Si
0.502891 0.308646 0.691354 Si
0.502891 0.191354 0.808646 Si
0.058646 0.252891 0.558646 Si
0.058646 0.558646 0.252891 Si
0.441354 0.058646 0.747109 Si
0.441354 0.247109 0.558646 Si
0.941354 0.252891 0.441354 Si
0.558646 0.941354 0.747109 Si
0.558646 0.247109 0.441354 Si
0.941354 0.441354 0.252891 Si
0.808646 0.191354 0.502891 Si
0.808646 0.002891 0.691354 Si
0.497109 0.808646 0.808646 Si
0.497109 0.691354 0.691354 Si
0.191354 0.997109 0.691354 Si
0.191354 0.691354 0.997109 Si
0.747109 0.941354 0.558646 Si
0.747109 0.058646 0.441354 Si
0.752891 0.441354 0.441354 Si
0.500000 0.500000 0.500000 Si
0.750000 0.750000 0.750000 Si
0.389692 0.389692 0.389692 Si
0.360308 0.639692 0.139692 Si
0.639692 0.360308 0.139692 Si
0.639692 0.639692 0.860308 Si
0.610308 0.889692 0.110308 Si
0.610308 0.610308 0.389692 Si
0.889692 0.610308 0.110308 Si
0.860308 0.860308 0.860308 Si
0.752891 0.058646 0.058646 Si
0.691354 0.502891 0.308646 Si
0.308646 0.497109 0.308646 Si
0.308646 0.308646 0.497109 Si
0.691354 0.808646 0.002891 Si
0.502891 0.808646 0.191354 Si
0.502891 0.691354 0.308646 Si
0.058646 0.752891 0.058646 Si
0.058646 0.058646 0.752891 Si
0.441354 0.558646 0.247109 Si
0.441354 0.747109 0.058646 Si
0.941354 0.752891 0.941354 Si
0.558646 0.441354 0.247109 Si
0.558646 0.747109 0.941354 Si
0.941354 0.941354 0.752891 Si
0.808646 0.691354 0.002891 Si
0.808646 0.502891 0.191354 Si
0.497109 0.308646 0.308646 Si
0.497109 0.191354 0.191354 Si
0.191354 0.497109 0.191354 Si
0.191354 0.191354 0.497109 Si
0.747109 0.441354 0.058646 Si
0.747109 0.558646 0.941354 Si
0.752891 0.941354 0.941354 Si

