971661   0.081  Si46
1.0
10.101500 0.000000 0.000000
0.000000 10.101500 0.000000
0.000000 0.000000 10.101500
Si
46
direct
0.143070 0.415470 0.415470 Si
0.643070 0.084530 0.084530 Si
0.356930 0.915470 0.084530 Si
0.415470 0.415470 0.143070 Si
0.356930 0.084530 0.915470 Si
0.084530 0.084530 0.643070 Si
0.915470 0.084530 0.356930 Si
0.084530 0.915470 0.356930 Si
0.415470 0.143070 0.415470 Si
0.084530 0.356930 0.915470 Si
0.915470 0.356930 0.084530 Si
0.084530 0.643070 0.084530 Si
0.000000 0.000000 0.000000 Si
0.364370 0.364370 0.364370 Si
0.864370 0.135630 0.135630 Si
0.135630 0.864370 0.135630 Si
0.135630 0.135630 0.864370 Si
0.500000 0.000000 0.250000 Si
0.000000 0.500000 0.250000 Si
0.000000 0.250000 0.500000 Si
0.500000 0.250000 0.000000 Si
0.250000 0.500000 0.000000 Si
0.250000 0.000000 0.500000 Si
0.643070 0.915470 0.915470 Si
0.143070 0.584530 0.584530 Si
0.856930 0.415470 0.584530 Si
0.915470 0.915470 0.643070 Si
0.856930 0.584530 0.415470 Si
0.584530 0.584530 0.143070 Si
0.415470 0.584530 0.856930 Si
0.584530 0.415470 0.856930 Si
0.915470 0.643070 0.915470 Si
0.584530 0.856930 0.415470 Si
0.415470 0.856930 0.584530 Si
0.584530 0.143070 0.584530 Si
0.500000 0.500000 0.500000 Si
0.864370 0.864370 0.864370 Si
0.364370 0.635630 0.635630 Si
0.635630 0.364370 0.635630 Si
0.635630 0.635630 0.364370 Si
0.000000 0.500000 0.750000 Si
0.500000 0.000000 0.750000 Si
0.500000 0.750000 0.000000 Si
0.000000 0.750000 0.500000 Si
0.750000 0.000000 0.500000 Si
0.750000 0.500000 0.000000 Si

