1201492  0.121  Si232
1.0
17.645510 0.000000 0.000000
0.000000 17.645510 0.000000
0.000000 0.000000 17.645510
Si
232
direct
0.262521 0.845906 0.418133 Si
0.737479 0.345906 0.081867 Si
0.237479 0.154094 0.918133 Si
0.762521 0.654094 0.581867 Si
0.418133 0.262521 0.845906 Si
0.081867 0.737479 0.345906 Si
0.918133 0.237479 0.154094 Si
0.581867 0.762521 0.654094 Si
0.845906 0.418133 0.262521 Si
0.345906 0.081867 0.737479 Si
0.154094 0.918133 0.237479 Si
0.654094 0.581867 0.762521 Si
0.737479 0.154094 0.581867 Si
0.262521 0.654094 0.918133 Si
0.762521 0.845906 0.081867 Si
0.237479 0.345906 0.418133 Si
0.581867 0.737479 0.154094 Si
0.918133 0.262521 0.654094 Si
0.081867 0.762521 0.845906 Si
0.418133 0.237479 0.345906 Si
0.154094 0.581867 0.737479 Si
0.654094 0.918133 0.262521 Si
0.845906 0.081867 0.762521 Si
0.345906 0.418133 0.237479 Si
0.894093 0.815674 0.404241 Si
0.105907 0.315674 0.095759 Si
0.605907 0.184326 0.904241 Si
0.394093 0.684326 0.595759 Si
0.404241 0.894093 0.815674 Si
0.095759 0.105907 0.315674 Si
0.904241 0.605907 0.184326 Si
0.595759 0.394093 0.684326 Si
0.815674 0.404241 0.894093 Si
0.315674 0.095759 0.105907 Si
0.184326 0.904241 0.605907 Si
0.684326 0.595759 0.394093 Si
0.105907 0.184326 0.595759 Si
0.894093 0.684326 0.904241 Si
0.394093 0.815674 0.095759 Si
0.605907 0.315674 0.404241 Si
0.595759 0.105907 0.184326 Si
0.904241 0.894093 0.684326 Si
0.095759 0.394093 0.815674 Si
0.404241 0.605907 0.315674 Si
0.184326 0.595759 0.105907 Si
0.684326 0.904241 0.894093 Si
0.815674 0.095759 0.394093 Si
0.315674 0.404241 0.605907 Si
0.391910 0.807586 0.401593 Si
0.608090 0.307586 0.098407 Si
0.108090 0.192414 0.901593 Si
0.891910 0.692414 0.598407 Si
0.401593 0.391910 0.807586 Si
0.098407 0.608090 0.307586 Si
0.901593 0.108090 0.192414 Si
0.598407 0.891910 0.692414 Si
0.807586 0.401593 0.391910 Si
0.307586 0.098407 0.608090 Si
0.192414 0.901593 0.108090 Si
0.692414 0.598407 0.891910 Si
0.608090 0.192414 0.598407 Si
0.391910 0.692414 0.901593 Si
0.891910 0.807586 0.098407 Si
0.108090 0.307586 0.401593 Si
0.598407 0.608090 0.192414 Si
0.901593 0.391910 0.692414 Si
0.098407 0.891910 0.807586 Si
0.401593 0.108090 0.307586 Si
0.192414 0.598407 0.608090 Si
0.692414 0.901593 0.391910 Si
0.807586 0.098407 0.891910 Si
0.307586 0.401593 0.108090 Si
0.973216 0.802579 0.296740 Si
0.026784 0.302579 0.203260 Si
0.526784 0.197421 0.796740 Si
0.473216 0.697421 0.703260 Si
0.296740 0.973216 0.802579 Si
0.203260 0.026784 0.302579 Si
0.796740 0.526784 0.197421 Si
0.703260 0.473216 0.697421 Si
0.802579 0.296740 0.973216 Si
0.302579 0.203260 0.026784 Si
0.197421 0.796740 0.526784 Si
0.697421 0.703260 0.473216 Si
0.026784 0.197421 0.703260 Si
0.973216 0.697421 0.796740 Si
0.473216 0.802579 0.203260 Si
0.526784 0.302579 0.296740 Si
0.703260 0.026784 0.197421 Si
0.796740 0.973216 0.697421 Si
0.203260 0.473216 0.802579 Si
0.296740 0.526784 0.302579 Si
0.197421 0.703260 0.026784 Si
0.697421 0.796740 0.973216 Si
0.802579 0.203260 0.473216 Si
0.302579 0.296740 0.526784 Si
0.763502 0.786322 0.389731 Si
0.236498 0.286322 0.110269 Si
0.736498 0.213678 0.889731 Si
0.263502 0.713678 0.610269 Si
0.389731 0.763502 0.786322 Si
0.110269 0.236498 0.286322 Si
0.889731 0.736498 0.213678 Si
0.610269 0.263502 0.713678 Si
0.786322 0.389731 0.763502 Si
0.286322 0.110269 0.236498 Si
0.213678 0.889731 0.736498 Si
0.713678 0.610269 0.263502 Si
0.236498 0.213678 0.610269 Si
0.763502 0.713678 0.889731 Si
0.263502 0.786322 0.110269 Si
0.736498 0.286322 0.389731 Si
0.610269 0.236498 0.213678 Si
0.889731 0.763502 0.713678 Si
0.110269 0.263502 0.786322 Si
0.389731 0.736498 0.286322 Si
0.213678 0.610269 0.236498 Si
0.713678 0.889731 0.763502 Si
0.786322 0.110269 0.263502 Si
0.286322 0.389731 0.736498 Si
0.958884 0.771284 0.513176 Si
0.041116 0.271284 0.986824 Si
0.541116 0.228716 0.013176 Si
0.458884 0.728716 0.486824 Si
0.513176 0.958884 0.771284 Si
0.986824 0.041116 0.271284 Si
0.013176 0.541116 0.228716 Si
0.486824 0.458884 0.728716 Si
0.771284 0.513176 0.958884 Si
0.271284 0.986824 0.041116 Si
0.228716 0.013176 0.541116 Si
0.728716 0.486824 0.458884 Si
0.041116 0.228716 0.486824 Si
0.958884 0.728716 0.013176 Si
0.458884 0.771284 0.986824 Si
0.541116 0.271284 0.513176 Si
0.486824 0.041116 0.228716 Si
0.013176 0.958884 0.728716 Si
0.986824 0.458884 0.771284 Si
0.513176 0.541116 0.271284 Si
0.228716 0.486824 0.041116 Si
0.728716 0.013176 0.958884 Si
0.771284 0.986824 0.458884 Si
0.271284 0.513176 0.541116 Si
0.583246 0.768409 0.518490 Si
0.416754 0.268409 0.981510 Si
0.916754 0.231591 0.018490 Si
0.083246 0.731591 0.481510 Si
0.518490 0.583246 0.768409 Si
0.981510 0.416754 0.268409 Si
0.018490 0.916754 0.231591 Si
0.481510 0.083246 0.731591 Si
0.768409 0.518490 0.583246 Si
0.268409 0.981510 0.416754 Si
0.231591 0.018490 0.916754 Si
0.731591 0.481510 0.083246 Si
0.416754 0.231591 0.481510 Si
0.583246 0.731591 0.018490 Si
0.083246 0.768409 0.981510 Si
0.916754 0.268409 0.518490 Si
0.481510 0.416754 0.231591 Si
0.018490 0.583246 0.731591 Si
0.981510 0.083246 0.768409 Si
0.518490 0.916754 0.268409 Si
0.231591 0.481510 0.416754 Si
0.731591 0.018490 0.583246 Si
0.768409 0.981510 0.083246 Si
0.268409 0.518490 0.916754 Si
0.084245 0.604215 0.526640 Si
0.915755 0.104215 0.973360 Si
0.415755 0.395785 0.026640 Si
0.584245 0.895785 0.473360 Si
0.526640 0.084245 0.604215 Si
0.973360 0.915755 0.104215 Si
0.026640 0.415755 0.395785 Si
0.473360 0.584245 0.895785 Si
0.604215 0.526640 0.084245 Si
0.104215 0.973360 0.915755 Si
0.395785 0.026640 0.415755 Si
0.895785 0.473360 0.584245 Si
0.915755 0.395785 0.473360 Si
0.084245 0.895785 0.026640 Si
0.584245 0.604215 0.973360 Si
0.415755 0.104215 0.526640 Si
0.473360 0.915755 0.395785 Si
0.026640 0.084245 0.895785 Si
0.973360 0.584245 0.604215 Si
0.526640 0.415755 0.104215 Si
0.395785 0.473360 0.915755 Si
0.895785 0.026640 0.084245 Si
0.604215 0.973360 0.584245 Si
0.104215 0.526640 0.415755 Si
0.455353 0.606286 0.437372 Si
0.544647 0.106286 0.062628 Si
0.044647 0.393714 0.937372 Si
0.955353 0.893714 0.562628 Si
0.437372 0.455353 0.606286 Si
0.062628 0.544647 0.106286 Si
0.937372 0.044647 0.393714 Si
0.562628 0.955353 0.893714 Si
0.606286 0.437372 0.455353 Si
0.106286 0.062628 0.544647 Si
0.393714 0.937372 0.044647 Si
0.893714 0.562628 0.955353 Si
0.544647 0.393714 0.562628 Si
0.455353 0.893714 0.937372 Si
0.955353 0.606286 0.062628 Si
0.044647 0.106286 0.437372 Si
0.562628 0.544647 0.393714 Si
0.937372 0.455353 0.893714 Si
0.062628 0.955353 0.606286 Si
0.437372 0.044647 0.106286 Si
0.393714 0.562628 0.544647 Si
0.893714 0.937372 0.455353 Si
0.606286 0.062628 0.955353 Si
0.106286 0.437372 0.044647 Si
0.189655 0.810345 0.310345 Si
0.810345 0.310345 0.189655 Si
0.310345 0.189655 0.810345 Si
0.689655 0.689655 0.689655 Si
0.810345 0.189655 0.689655 Si
0.189655 0.689655 0.810345 Si
0.689655 0.810345 0.189655 Si
0.310345 0.310345 0.310345 Si
0.766026 0.766026 0.766026 Si
0.233974 0.266026 0.733974 Si
0.733974 0.233974 0.266026 Si
0.266026 0.733974 0.233974 Si
0.233974 0.233974 0.233974 Si
0.766026 0.733974 0.266026 Si
0.266026 0.766026 0.733974 Si
0.733974 0.266026 0.766026 Si

