1001113  0.477  Si8
1.0
3.326120 0.000000 0.000000
0.000000 9.370646 0.000000
0.000000 0.000000 3.928044
Si
8
direct
0.000000 0.104848 0.750000 Si
0.000000 0.375204 0.750000 Si
0.500000 0.395152 0.250000 Si
0.500000 0.124796 0.250000 Si
0.500000 0.604848 0.750000 Si
0.500000 0.875204 0.750000 Si
0.000000 0.895152 0.250000 Si
0.000000 0.624796 0.250000 Si

