165   0.011   Si4
1.0
3.850482 0.000000 0.000000
-1.925241 3.334615 0.000000
0.000000 0.000000 6.365686
Si
4
direct
0.333333 0.666667 0.062956 Si
0.666667 0.333333 0.562956 Si
0.333333 0.666667 0.437044 Si
0.666667 0.333333 0.937044 Si
