1094057 0.500    Si9
1.0
2.686228 0.000000 0.000000
-1.343114 2.326342 0.000000
0.000000 0.000000 20.613066
Si
9
direct
0.000000 0.000000 0.000000 Si
0.000000 0.000000 0.222404 Si
0.666667 0.333333 0.110930 Si
0.666667 0.333333 0.333333 Si
0.666667 0.333333 0.555737 Si
0.333333 0.666667 0.444263 Si
0.333333 0.666667 0.666667 Si
0.333333 0.666667 0.889070 Si
0.000000 0.000000 0.777596 Si

