109  0.291  Si16
1.0
4.895745 0.000000 0.000000
0.000000 5.339688 0.000000
0.000000 0.000000 9.402631
Si
16
direct
0.500000 0.228906 0.000000 Si
0.500000 0.771094 0.000000 Si
0.500000 0.000000 0.277823 Si
0.000000 0.000000 0.222177 Si
0.500000 0.728906 0.500000 Si
0.500000 0.271094 0.500000 Si
0.500000 0.500000 0.777823 Si
0.000000 0.500000 0.722177 Si
0.000000 0.228906 0.500000 Si
0.000000 0.771094 0.500000 Si
0.000000 0.000000 0.777823 Si
0.500000 0.000000 0.722177 Si
0.000000 0.728906 0.000000 Si
0.000000 0.271094 0.000000 Si
0.000000 0.500000 0.277823 Si
0.500000 0.500000 0.222177 Si

