999200  0.101   Si8
1.0
6.690092 0.000000 0.000000
0.000000 6.690092 0.000000
0.000000 0.000000 3.862090
Si
8
direct
0.178625 0.178625 0.000000 Si
0.321375 0.321375 0.500000 Si
0.678625 0.321375 0.500000 Si
0.821375 0.178625 0.000000 Si
0.678625 0.678625 0.500000 Si
0.821375 0.821375 0.000000 Si
0.178625 0.821375 0.000000 Si
0.321375 0.678625 0.500000 Si

