34   0.304   Si1
1.0
2.649525 0.000000 0.000000
-1.324762 2.294556 0.000000
0.000000 0.000000 2.476905
Si
1
direct
0.000000 0.000000 0.000000 Si

