1244971  0.317    Si100
1.0
11.594356 0.000000 -1.514667
-2.307607 12.347750 -1.686009
0.000000 0.000000 13.418674
Si
100
direct
0.103826 0.240389 0.567279 Si
0.957273 0.598924 0.517790 Si
0.629527 0.563775 0.875167 Si
0.377874 0.215703 0.452665 Si
0.584528 0.123012 0.844047 Si
0.608646 0.729428 0.186559 Si
0.138902 0.859170 0.658758 Si
0.381839 0.245526 0.016160 Si
0.366622 0.385799 0.924571 Si
0.509366 0.969985 0.564762 Si
0.286089 0.891898 0.353448 Si
0.633321 0.462089 0.402946 Si
0.166710 0.391149 0.910272 Si
0.356836 0.675995 0.744058 Si
0.363174 0.310920 0.188643 Si
0.616051 0.511531 0.131056 Si
0.821811 0.394232 0.579562 Si
0.572351 0.772473 0.357923 Si
0.502315 0.475346 0.261563 Si
0.584888 0.280060 0.766083 Si
0.034954 0.372876 0.043898 Si
0.107694 0.944717 0.120594 Si
0.075000 0.649297 0.372727 Si
0.956989 0.572745 0.893692 Si
0.687232 0.349899 0.067723 Si
0.945077 0.848966 0.711547 Si
0.103193 0.827932 0.242639 Si
0.670770 0.887564 0.116503 Si
0.492963 0.551681 0.991707 Si
0.269271 0.020640 0.650195 Si
0.151110 0.655921 0.788925 Si
0.141463 0.541766 0.507106 Si
0.236866 0.896230 0.842658 Si
0.597990 0.808246 0.542843 Si
0.916463 0.236253 0.749543 Si
0.392783 0.327094 0.757714 Si
0.281639 0.724395 0.421134 Si
0.554237 0.175541 0.015148 Si
0.723854 0.740173 0.845515 Si
0.221869 0.190157 0.701847 Si
0.586171 0.088712 0.332134 Si
0.822067 0.653506 0.987030 Si
0.368891 0.668294 0.053927 Si
0.737189 0.030323 0.904133 Si
0.928294 0.331294 0.313641 Si
0.826533 0.096754 0.076681 Si
0.790373 0.655190 0.161047 Si
0.948892 0.100881 0.496535 Si
0.821161 0.791272 0.426537 Si
0.025603 0.794998 0.482546 Si
0.800501 0.890199 0.588704 Si
0.949997 0.569496 0.214132 Si
0.457874 0.853527 0.117935 Si
0.134474 0.408259 0.354934 Si
0.702958 0.400542 0.902579 Si
0.034852 0.964966 0.410822 Si
0.471290 0.906734 0.296023 Si
0.495617 0.670888 0.619527 Si
0.904905 0.957506 0.855482 Si
0.887538 0.934057 0.122034 Si
0.338700 0.031856 0.493278 Si
0.161788 0.139867 0.171421 Si
0.253477 0.718623 0.594501 Si
0.112736 0.657432 0.151236 Si
0.124811 0.832908 0.968126 Si
0.313061 0.030471 0.183522 Si
0.425453 0.014134 0.049105 Si
0.012176 0.192931 0.066623 Si
0.521965 0.379957 0.520178 Si
0.099378 0.210595 0.825300 Si
0.896684 0.380399 0.886434 Si
0.945250 0.669275 0.745845 Si
0.643407 0.107831 0.518680 Si
0.780292 0.565834 0.639061 Si
0.727572 0.065552 0.219312 Si
0.155891 0.655930 0.977897 Si
0.196583 0.266007 0.428755 Si
0.428674 0.850979 0.837838 Si
0.587111 0.537752 0.687903 Si
0.147928 0.469703 0.758993 Si
0.381773 0.507195 0.518877 Si
0.452738 0.986024 0.730271 Si
0.069262 0.085739 0.934929 Si
0.902965 0.144961 0.332338 Si
0.904813 0.843718 0.272543 Si
0.709900 0.641178 0.492990 Si
0.266928 0.069973 0.948601 Si
0.622695 0.866982 0.933780 Si
0.292127 0.598451 0.192179 Si
0.886083 0.382399 0.153308 Si
0.328630 0.477192 0.687721 Si
0.201793 0.415987 0.189048 Si
0.819265 0.083605 0.612650 Si
0.427211 0.182013 0.291290 Si
0.649601 0.282922 0.605489 Si
0.092975 0.110006 0.321156 Si
0.829437 0.438307 0.416711 Si
0.416998 0.621298 0.346761 Si
0.997612 0.355820 0.647954 Si
0.916658 0.830215 0.967941 Si

