1244933  0.349   Si100
1.0
11.830121 0.000000 3.497943
2.164262 12.091621 2.507433
0.000000 0.000000 12.539835
Si
100
direct
0.780796 0.581595 0.087527 Si
0.239115 0.654561 0.123744 Si
0.728013 0.622808 0.698029 Si
0.982043 0.681032 0.699869 Si
0.967589 0.423820 0.051784 Si
0.497448 0.658413 0.270331 Si
0.086076 0.265941 0.866583 Si
0.194472 0.503049 0.798756 Si
0.642027 0.481904 0.430632 Si
0.494705 0.383221 0.411736 Si
0.699783 0.383245 0.592646 Si
0.392224 0.440713 0.146290 Si
0.053001 0.955028 0.597438 Si
0.941686 0.378098 0.721151 Si
0.705336 0.122881 0.488975 Si
0.801557 0.811550 0.866630 Si
0.925298 0.304727 0.327673 Si
0.732134 0.907708 0.565131 Si
0.142828 0.729404 0.434364 Si
0.506572 0.007557 0.227873 Si
0.424892 0.383532 0.610235 Si
0.224670 0.818460 0.529825 Si
0.996644 0.520058 0.448560 Si
0.407571 0.518707 0.726616 Si
0.826794 0.666376 0.506739 Si
0.992703 0.466620 0.852873 Si
0.442521 0.847501 0.022688 Si
0.718771 0.295691 0.361053 Si
0.615250 0.926262 0.909917 Si
0.553273 0.478036 0.201922 Si
0.606222 0.486691 0.738990 Si
0.369644 0.680883 0.597355 Si
0.225203 0.425861 0.628111 Si
0.165783 0.812752 0.006545 Si
0.412479 0.205169 0.919786 Si
0.675109 0.290633 0.188947 Si
0.215936 0.287759 0.971621 Si
0.412213 0.813563 0.677931 Si
0.137742 0.269352 0.663774 Si
0.226842 0.829277 0.805486 Si
0.862269 0.004996 0.374444 Si
0.094156 0.571561 0.560178 Si
0.120805 0.927893 0.229581 Si
0.954047 0.483040 0.224186 Si
0.326590 0.876435 0.209710 Si
0.297063 0.676783 0.280714 Si
0.127113 0.695565 0.782478 Si
0.683775 0.194076 0.655759 Si
0.028264 0.086685 0.937643 Si
0.642794 0.537068 0.003756 Si
0.001485 0.191573 0.592922 Si
0.062885 0.602711 0.251132 Si
0.898245 0.368080 0.532271 Si
0.821089 0.272310 0.866724 Si
0.487844 0.253589 0.187560 Si
0.579587 0.945939 0.731582 Si
0.066825 0.672541 0.984209 Si
0.691668 0.045438 0.982216 Si
0.365678 0.066664 0.126676 Si
0.396677 0.059401 0.741850 Si
0.177783 0.364253 0.400529 Si
0.044626 0.013715 0.399088 Si
0.821875 0.612699 0.842703 Si
0.480530 0.215953 0.722349 Si
0.558100 0.220845 0.000142 Si
0.965312 0.902296 0.048006 Si
0.129211 0.085203 0.082378 Si
0.272420 0.096593 0.442540 Si
0.491163 0.675870 0.948588 Si
0.964253 0.235898 0.141953 Si
0.662636 0.787645 0.452724 Si
0.832777 0.187961 0.058131 Si
0.100679 0.188587 0.377564 Si
0.837835 0.141848 0.745962 Si
0.486867 0.917957 0.502099 Si
0.868583 0.746779 0.034896 Si
0.326213 0.478091 0.346290 Si
0.888045 0.865649 0.659746 Si
0.565652 0.755818 0.762359 Si
0.677443 0.896620 0.140221 Si
0.619733 0.103524 0.284700 Si
0.166961 0.479426 0.006768 Si
0.391381 0.236900 0.384973 Si
0.199895 0.399068 0.195226 Si
0.103037 0.996222 0.763549 Si
0.328779 0.027277 0.953811 Si
0.944174 0.808567 0.439216 Si
0.764342 0.584647 0.281144 Si
0.363166 0.920186 0.385050 Si
0.811364 0.014830 0.192314 Si
0.977399 0.798799 0.238864 Si
0.778243 0.776833 0.268804 Si
0.249896 0.090649 0.642858 Si
0.532856 0.663915 0.445337 Si
0.608848 0.745559 0.104444 Si
0.884628 0.977791 0.869698 Si
0.640188 0.384847 0.910298 Si
0.207202 0.208267 0.172995 Si
0.358813 0.550927 0.978013 Si
0.521630 0.100813 0.479965 Si

