644693  0.414   Si8
1.0
3.974324 0.000000 0.048768
-1.957721 4.859739 -1.519468
0.000000 0.000000 9.014502
Si
8
direct
0.094740 0.827655 0.917667 Si
0.000724 0.211002 0.940289 Si
0.566595 0.003634 0.759282 Si
0.125707 0.361705 0.371541 Si
0.841008 0.069501 0.198355 Si
0.286715 0.842253 0.317670 Si
0.567874 0.132669 0.488678 Si
0.509253 0.566418 0.999908 Si


