1120447  0.369   Si8
1.0
4.766311 0.000000 -1.659745
-0.011468 5.119965 -1.816946
0.000000 0.000000 6.902279
Si
8
direct
0.757538 0.979653 0.117539 Si
0.447467 0.795478 0.743508 Si
0.755446 0.425250 0.308223 Si
0.066436 0.786301 0.893959 Si
0.451868 0.774605 0.245690 Si
0.751369 0.441310 0.652432 Si
0.051034 0.781274 0.390390 Si
0.751409 0.000983 0.625969 Si

