1245242 0.317  Si100
1.0
12.257319 0.000000 1.933664
1.360818 12.321247 2.314707
0.000000 0.000000 12.681442
Si
100
direct
0.107416 0.510130 0.928974 Si
0.072505 0.452319 0.430407 Si
0.341158 0.302977 0.405417 Si
0.662738 0.269220 0.341278 Si
0.226492 0.602441 0.004496 Si
0.420641 0.793795 0.062285 Si
0.894916 0.218681 0.635448 Si
0.663330 0.372946 0.027778 Si
0.215963 0.284159 0.691336 Si
0.613196 0.445212 0.378662 Si
0.782654 0.523914 0.324374 Si
0.930085 0.535770 0.027419 Si
0.699006 0.066829 0.969713 Si
0.477748 0.227768 0.829316 Si
0.328351 0.968698 0.716184 Si
0.696677 0.600480 0.106233 Si
0.340245 0.507460 0.400367 Si
0.374052 0.174542 0.277006 Si
0.516785 0.877403 0.165047 Si
0.072205 0.985313 0.517316 Si
0.419449 0.233812 0.093607 Si
0.853204 0.932188 0.996757 Si
0.887648 0.528404 0.466321 Si
0.889603 0.436747 0.771921 Si
0.261216 0.436249 0.132018 Si
0.506447 0.984195 0.759533 Si
0.843427 0.099079 0.180338 Si
0.115094 0.935780 0.008566 Si
0.961449 0.756768 0.957982 Si
0.385509 0.002633 0.528879 Si
0.056263 0.334490 0.813488 Si
0.341765 0.530359 0.741820 Si
0.571121 0.146264 0.267866 Si
0.984251 0.904642 0.689040 Si
0.968273 0.978593 0.376741 Si
0.802645 0.903826 0.193228 Si
0.147803 0.564788 0.739057 Si
0.196422 0.103181 0.781872 Si
0.669589 0.194217 0.815942 Si
0.717191 0.851539 0.584086 Si
0.553192 0.694412 0.518478 Si
0.684879 0.765486 0.179638 Si
0.417052 0.055484 0.918640 Si
0.357844 0.659068 0.848803 Si
0.508066 0.797807 0.710832 Si
0.405439 0.394442 0.882403 Si
0.951806 0.546260 0.207756 Si
0.834374 0.623461 0.761389 Si
0.886123 0.206235 0.993439 Si
0.929383 0.823956 0.317586 Si
0.653601 0.148387 0.504943 Si
0.164433 0.604181 0.389181 Si
0.504522 0.601105 0.088014 Si
0.741165 0.122540 0.660510 Si
0.464678 0.425837 0.049285 Si
0.786408 0.932019 0.716571 Si
0.942836 0.740162 0.626338 Si
0.092812 0.407873 0.255741 Si
0.258403 0.930000 0.446107 Si
0.540901 0.833424 0.901014 Si
0.719687 0.360694 0.843680 Si
0.515546 0.056499 0.062740 Si
0.012210 0.246380 0.317212 Si
0.654222 0.969223 0.323274 Si
0.837655 0.726896 0.475811 Si
0.771342 0.999841 0.441631 Si
0.045757 0.102964 0.069242 Si
0.657744 0.639805 0.697610 Si
0.286850 0.956418 0.072437 Si
0.080117 0.747664 0.790052 Si
0.414579 0.279201 0.660380 Si
0.048272 0.684787 0.251339 Si
0.039368 0.996945 0.834241 Si
0.681851 0.184701 0.097428 Si
0.550767 0.885932 0.492932 Si
0.103597 0.746157 0.067456 Si
0.546611 0.648949 0.872090 Si
0.700505 0.691217 0.370358 Si
0.398408 0.588315 0.550265 Si
0.830793 0.405738 0.615104 Si
0.261214 0.313818 0.002393 Si
0.061426 0.321922 0.002957 Si
0.041172 0.177763 0.501194 Si
0.261890 0.799296 0.738938 Si
0.488032 0.574939 0.282258 Si
0.168285 0.294697 0.517350 Si
0.646983 0.455355 0.685675 Si
0.526144 0.424582 0.569952 Si
0.801542 0.674522 0.935216 Si
0.271455 0.023126 0.256806 Si
0.454269 0.173129 0.521195 Si
0.842092 0.264440 0.247806 Si
0.116926 0.658297 0.561621 Si
0.505165 0.748901 0.327452 Si
0.266947 0.754367 0.561162 Si
0.082786 0.089682 0.247399 Si
0.844970 0.371908 0.072198 Si
0.959503 0.180508 0.812228 Si
0.725390 0.861623 0.903252 Si
0.224011 0.140437 0.956645 Si

