1244990  0.366   Si100
1.0
11.951323 0.000000 -2.359492
-2.598240 11.557070 -3.025104
0.000000 0.000000 12.676976
Si
100
direct
0.064993 0.815722 0.722012 Si
0.645112 0.569503 0.819000 Si
0.194122 0.891028 0.620048 Si
0.318559 0.653923 0.344997 Si
0.541733 0.977095 0.190202 Si
0.701566 0.385160 0.847232 Si
0.006934 0.231911 0.457160 Si
0.511499 0.362618 0.874967 Si
0.826834 0.395447 0.362884 Si
0.743325 0.031379 0.316798 Si
0.943464 0.082907 0.674546 Si
0.328727 0.336213 0.059184 Si
0.297625 0.386234 0.758631 Si
0.261814 0.891517 0.197920 Si
0.995090 0.031818 0.425333 Si
0.886557 0.261774 0.748990 Si
0.630057 0.113088 0.921890 Si
0.139332 0.595684 0.393335 Si
0.055819 0.222924 0.280898 Si
0.837438 0.946821 0.486629 Si
0.739508 0.304083 0.018923 Si
0.863789 0.326574 0.517542 Si
0.623016 0.789171 0.997048 Si
0.893776 0.876409 0.658880 Si
0.671041 0.248110 0.517068 Si
0.647983 0.429048 0.142562 Si
0.425674 0.089607 0.287253 Si
0.747763 0.594340 0.556394 Si
0.279960 0.207723 0.323891 Si
0.066650 0.373334 0.740848 Si
0.666198 0.481975 0.358545 Si
0.858868 0.868014 0.909441 Si
0.113291 0.565123 0.565749 Si
0.455639 0.653944 0.000142 Si
0.057842 0.863253 0.920871 Si
0.759124 0.196112 0.238904 Si
0.363928 0.952654 0.931504 Si
0.005218 0.324761 0.946214 Si
0.978537 0.652621 0.966422 Si
0.189587 0.014533 0.874250 Si
0.163285 0.387770 0.125674 Si
0.645217 0.448339 0.630070 Si
0.948756 0.646940 0.568880 Si
0.188102 0.312800 0.879305 Si
0.912841 0.765688 0.441498 Si
0.476209 0.560603 0.358095 Si
0.455499 0.338597 0.672292 Si
0.065357 0.763024 0.345347 Si
0.371530 0.366718 0.262084 Si
0.152075 0.382784 0.582400 Si
0.836871 0.546112 0.156698 Si
0.139914 0.038977 0.201344 Si
0.743923 0.655598 0.304429 Si
0.961373 0.470256 0.273200 Si
0.220174 0.590522 0.154500 Si
0.357708 0.591253 0.799830 Si
0.576570 0.737334 0.312076 Si
0.408443 0.839931 0.469447 Si
0.698510 0.777522 0.619882 Si
0.637289 0.993199 0.042891 Si
0.536183 0.299691 0.366106 Si
0.612540 0.770378 0.776224 Si
0.355001 0.006933 0.427885 Si
0.120816 0.093790 0.032455 Si
0.458973 0.178789 0.900425 Si
0.448305 0.134241 0.614987 Si
0.391805 0.151824 0.059440 Si
0.312677 0.349105 0.502686 Si
0.080044 0.570652 0.832928 Si
0.483070 0.910216 0.780385 Si
0.342684 0.784916 0.617786 Si
0.595620 0.044667 0.415118 Si
0.956722 0.963692 0.224506 Si
0.163432 0.957038 0.454992 Si
0.646975 0.026246 0.735623 Si
0.483874 0.476335 0.041152 Si
0.241444 0.830821 0.001612 Si
0.869394 0.755850 0.184337 Si
0.578786 0.245476 0.181986 Si
0.478749 0.491648 0.518454 Si
0.676574 0.211109 0.698927 Si
0.878480 0.450666 0.702473 Si
0.885068 0.465536 0.977389 Si
0.101247 0.724528 0.159546 Si
0.840641 0.009815 0.074780 Si
0.612586 0.879002 0.491004 Si
0.147787 0.127061 0.750537 Si
0.433190 0.790797 0.180542 Si
0.904732 0.269538 0.153970 Si
0.790000 0.708123 0.978822 Si
0.696409 0.829765 0.204580 Si
0.200929 0.683674 0.753470 Si
0.835421 0.011563 0.809446 Si
0.352938 0.046397 0.726920 Si
0.441274 0.638778 0.659438 Si
0.828320 0.649733 0.778051 Si
0.942556 0.145478 0.985339 Si
0.253169 0.184665 0.615647 Si
0.197496 0.398243 0.325068 Si
0.250603 0.635132 0.989828 Si

