676011  0.436   Si8
1.0
4.642832 0.000000 -1.672509
-2.440849 4.802254 -0.226920
0.000000 0.000000 7.137199
Si
8
direct
0.712803 0.047647 0.840919 Si
0.589842 0.100007 0.255310 Si
0.461939 0.579635 0.673823 Si
0.173705 0.267649 0.146928 Si
0.233739 0.141020 0.760307 Si
0.079059 0.554145 0.356122 Si
0.729109 0.334653 0.593695 Si
0.074661 0.990390 0.395186 Si

